TSPOtimizacaoGurobi/ModeloTSP.lp
\ LP format - for model browsing. Use MPS format to capture full model detail.
Minimize
  22.3606797749979 x_0_1 + 72.11102550927978 x_0_2 + 60 x_0_3
   + 82.46211251235322 x_0_4 + 22.3606797749979 x_1_0 + 50 x_1_2
   + 53.85164807134504 x_1_3 + 70 x_1_4 + 72.11102550927978 x_2_0
   + 50 x_2_1 + 63.24555320336759 x_2_3 + 56.5685424949238 x_2_4 + 60 x_3_0
   + 53.85164807134504 x_3_1 + 63.24555320336759 x_3_2
   + 28.2842712474619 x_3_4 + 82.46211251235322 x_4_0 + 70 x_4_1
   + 56.5685424949238 x_4_2 + 28.2842712474619 x_4_3
Subject To
 R3_0: x_0_1 + x_0_2 + x_0_3 + x_0_4 = 1
 R3_1: x_1_0 + x_1_2 + x_1_3 + x_1_4 = 1
 R3_2: x_2_0 + x_2_1 + x_2_3 + x_2_4 = 1
 R3_3: x_3_0 + x_3_1 + x_3_2 + x_3_4 = 1
 R3_4: x_4_0 + x_4_1 + x_4_2 + x_4_3 = 1
 R4_0: x_1_0 + x_2_0 + x_3_0 + x_4_0 = 1
 R4_1: x_0_1 + x_2_1 + x_3_1 + x_4_1 = 1
 R4_2: x_0_2 + x_1_2 + x_3_2 + x_4_2 = 1
 R4_3: x_0_3 + x_1_3 + x_2_3 + x_4_3 = 1
 R4_4: x_0_4 + x_1_4 + x_2_4 + x_3_4 = 1
 Ryyyyy: u_0 = 0
 RMTZx_2_1: 4 x_2_1 - u_1 + u_2 <= 3
 RMTZx_3_1: 4 x_3_1 - u_1 + u_3 <= 3
 RMTZx_4_1: 4 x_4_1 - u_1 + u_4 <= 3
 RMTZx_1_2: 4 x_1_2 + u_1 - u_2 <= 3
 RMTZx_3_2: 4 x_3_2 - u_2 + u_3 <= 3
 RMTZx_4_2: 4 x_4_2 - u_2 + u_4 <= 3
 RMTZx_1_3: 4 x_1_3 + u_1 - u_3 <= 3
 RMTZx_2_3: 4 x_2_3 + u_2 - u_3 <= 3
 RMTZx_4_3: 4 x_4_3 - u_3 + u_4 <= 3
 RMTZx_1_4: 4 x_1_4 + u_1 - u_4 <= 3
 RMTZx_2_4: 4 x_2_4 + u_2 - u_4 <= 3
 RMTZx_3_4: 4 x_3_4 + u_3 - u_4 <= 3
Bounds
 u_0 <= 1e+11
 u_1 <= 1e+11
 u_2 <= 1e+11
 u_3 <= 1e+11
 u_4 <= 1e+11
Binaries
 x_0_1 x_0_2 x_0_3 x_0_4 x_1_0 x_1_2 x_1_3 x_1_4 x_2_0 x_2_1 x_2_3 x_2_4
 x_3_0 x_3_1 x_3_2 x_3_4 x_4_0 x_4_1 x_4_2 x_4_3
End
