TSPOtimizacaoGurobi/ModeloTSP.sol
# Objective value = 2.1721349351738360e+02
x_0_1 0
x_0_2 0
x_0_3 1
x_0_4 0
x_1_0 1
x_1_2 0
x_1_3 0
x_1_4 0
x_2_0 0
x_2_1 1
x_2_3 0
x_2_4 0
x_3_0 0
x_3_1 0
x_3_2 0
x_3_4 1
x_4_0 0
x_4_1 0
x_4_2 1
x_4_3 0
u_0 0
u_1 3
u_2 2
u_3 0
u_4 1
